39 25 4093
25 31 7859
31 28 12751
28 13 6411
13 23 20028
23 38 7449
38 29 745
29 36 16895
36 7 11794
7 21 17005
21 10 5744
10 35 6355
35 11 5412
11 1 8732
1 6 25297
6 9 47658
9 8 54349
8 15 26227
15 17 45489
17 14 42391
14 3 30026
3 16 71701
16 2 57771
2 27 15288
27 18 12606
18 40 18404
40 19 13572
19 4 26533
4 22 23621
22 24 45980
24 5 63665
5 32 3290
32 12 37145
12 33 3967
33 34 36786
34 26 36411
26 20 24941
20 30 17244
30 37 941
37 39 6534
